&CONTROL
  calculation = 'scf',
  pseudo_dir = './'
  outdir = './temp',
  prefix = 'Si',
  etot_conv_thr = 1.D-7,
  forc_conv_thr = 2.D-6,
  nstep = 100,
/
&SYSTEM
  ibrav = 2,
  celldm(1) = 10.27974,
  nat = 2,
  ntyp = 1,
  nbnd = 30,
  ecutwfc = 40,
  ecutrho = 320,
  occupations = 'smearing',
  smearing = 'gaussian',
  degauss = 0.005,
  input_dft = 'wc',
/
&ELECTRONS
  electron_maxstep = 150,
  diagonalization = 'david',
  conv_thr = 1.0d-7,
  mixing_beta = 0.2,
/
&IONS
/
&CELL
  press = 0.0,
/
ATOMIC_SPECIES
Si  28.0855   si_pbe_v1.uspp.F.UPF


ATOMIC_POSITIONS {crystal}
Si       0.000   0.000   0.000
