 &bands
   prefix  = 'PbTiO3'
   filband = 'bands.dat'
   outdir = './temp',
 /
