&projwfc
 outdir='./temp/'
 prefix='PbTiO3'
 DeltaE=0.015,
/
