&CONTROL
  calculation = 'nscf',
  pseudo_dir = './', 
  outdir = './temp',
  prefix = 'PbTiO3',
etot_conv_thr=1.D-7,
forc_conv_thr=2.D-6,
nstep=100,
/
&SYSTEM
  ibrav = 6,
  celldm(1) = 7.322103,
  celldm(3) = 1.085982,
  nat = 5,
  ntyp = 3,
  nbnd = 115,
  ecutwfc = 40,
  ecutrho = 320,
  occupations = 'smearing',
  smearing = 'gaussian',
  degauss = 0.02,
  input_dft='wc',

/
&ELECTRONS
  electron_maxstep = 150,
  diagonalization = 'david',
  conv_thr = 1.0d-7,
  mixing_beta = 0.2,
/
&IONS
/
&CELL
  press = 0.0,
/
ATOMIC_SPECIES
Pb  207.200 pb_pbe_v1.uspp.F.UPF
Ti  47.880  ti_pbe_v1.4.uspp.F.UPF
O   15.999  o_pbe_v1.2.uspp.F.UPF


ATOMIC_POSITIONS {crystal}
Pb       0.000000000   0.000000000   0.060018518
Ti       0.500000000   0.500000000   0.521467404
O        0.500000000   0.500000000  -0.057196024
O        0.500000000   0.000000000   0.437805051
O        0.000000000   0.500000000   0.437805051





K_POINTS {automatic}
10 10 10 1 1 1

