&projwfc
 outdir='./temp/'
 prefix='Si'
 DeltaE=0.015,
/
