 &bands
   prefix  = 'GaAs'
   filband = 'bands.dat'
   outdir = './temp',
 /
