&projwfc
 outdir='./temp/'
 prefix='GaAs'
 DeltaE=0.015,
/
