&projwfc
 outdir='./temp/'
 prefix='ZnS'
 DeltaE=0.015,
/
