 &bands
   prefix  = 'PbO'
   filband = 'bands.dat'
   outdir = './temp',
 /
