&CONTROL
  calculation = 'nscf',
  prefix = 'PbO',
  pseudo_dir = './',
  outdir = './temp',
  etot_conv_thr=1.D-7,
  forc_conv_thr=2.D-6,
  verbosity = high,
/
&SYSTEM
  ibrav = 6,
  celldm(1) = 7.539740,
  celldm(3) = 1.259809,
  nat = 4,
  ntyp = 2,
  nbnd = 40,
  ecutwfc = 40,
  ecutrho = 320,
  occupations = 'smearing',
  smearing = 'gaussian',
  degauss = 0.02,
  input_dft = 'wc',
/
&ELECTRONS
  electron_maxstep = 150,
  diagonalization = 'david',
  conv_thr = 1.0d-7,
  mixing_beta = 0.2,
/
&IONS
/
ATOMIC_SPECIES
Pb  207.21    pb_pbe_v1.uspp.F.UPF
O    15.9999  o_pbe_v1.2.uspp.F.UPF

ATOMIC_POSITIONS {crystal}
Pb       0.750000000   0.750000000  -0.235617994
O        0.750000000   0.250000000   0.000000000
O        0.250000000   0.750000000  -0.000000000
Pb       0.250000000   0.250000000   0.235617994

K_POINTS {automatic}
6 6 6 1 1 1 


