&projwfc
 outdir='./temp'
 prefix='PbO'
 DeltaE=0.015,
/
