&CONTROL
  calculation = 'bands',
  prefix = 'PbO',
  pseudo_dir = './',
  outdir = './temp',
  etot_conv_thr=1.D-7,
  forc_conv_thr=2.D-6,
  verbosity = high,
/
&SYSTEM
  ibrav = 6,
  celldm(1) = 7.539740,
  celldm(3) = 1.259809,
  nat = 4,
  ntyp = 2,
  nbnd = 40,
  ecutwfc = 40,
  ecutrho = 320,
  occupations = 'smearing',
  smearing = 'gaussian',
  degauss = 0.02,
  input_dft = 'wc',
/
&ELECTRONS
  electron_maxstep = 150,
  diagonalization = 'david',
  conv_thr = 1.0d-7,
  mixing_beta = 0.20,
/
&IONS
/
ATOMIC_SPECIES
Pb  207.21    pb_pbe_v1.uspp.F.UPF
O    15.9999  o_pbe_v1.2.uspp.F.UPF

ATOMIC_POSITIONS {crystal}
Pb       0.750000000   0.750000000  -0.235617994
O        0.750000000   0.250000000   0.000000000
O        0.250000000   0.750000000  -0.000000000
Pb       0.250000000   0.250000000   0.235617994

K_POINTS 
111

 0.00000   0.00000   0.00000 1.0 # $\Gamma$
 0.00000   0.05000   0.00000 1.0
 0.00000   0.10000   0.00000 1.0
 0.00000   0.15000   0.00000 1.0
 0.00000   0.20000   0.00000 1.0
 0.00000   0.25000   0.00000 1.0
 0.00000   0.30000   0.00000 1.0
 0.00000   0.35000   0.00000 1.0
 0.00000   0.40000   0.00000 1.0
 0.00000   0.45000   0.00000 1.0
 0.00000   0.50000   0.00000 1.0 # X
 0.05000   0.50000   0.00000 1.0
 0.10000   0.50000   0.00000 1.0
 0.15000   0.50000   0.00000 1.0
 0.20000   0.50000   0.00000 1.0
 0.25000   0.50000   0.00000 1.0
 0.30000   0.50000   0.00000 1.0
 0.35000   0.50000   0.00000 1.0
 0.40000   0.50000   0.00000 1.0
 0.45000   0.50000   0.00000 1.0
 0.50000   0.50000   0.00000 1.0 # M
 0.45000   0.45000   0.00000 1.0
 0.40000   0.40000   0.00000 1.0
 0.35000   0.35000   0.00000 1.0
 0.30000   0.30000   0.00000 1.0
 0.25000   0.25000   0.00000 1.0
 0.20000   0.20000   0.00000 1.0
 0.15000   0.15000   0.00000 1.0
 0.10000   0.10000   0.00000 1.0
 0.05000   0.05000   0.00000 1.0
 0.00000   0.00000   0.00000 1.0 # $\Gamma$
 0.00000   0.00000   0.05000 1.0
 0.00000   0.00000   0.10000 1.0 
 0.00000   0.00000   0.15000 1.0
 0.00000   0.00000   0.20000 1.0
 0.00000   0.00000   0.25000 1.0
 0.00000   0.00000   0.30000 1.0
 0.00000   0.00000   0.35000 1.0
 0.00000   0.00000   0.40000 1.0
 0.00000   0.00000   0.45000 1.0
 0.00000   0.00000   0.50000 1.0 # Z
 0.00000   0.05000   0.50000 1.0
 0.00000   0.10000   0.50000 1.0
 0.00000   0.15000   0.50000 1.0
 0.00000   0.20000   0.50000 1.0
 0.00000   0.25000   0.50000 1.0 
 0.00000   0.30000   0.50000 1.0
 0.00000   0.35000   0.50000 1.0
 0.00000   0.40000   0.50000 1.0
 0.00000   0.45000   0.50000 1.0
 0.00000   0.50000   0.50000 1.0 # R
 0.05000   0.50000   0.50000 1.0
 0.10000   0.50000   0.50000 1.0
 0.15000   0.50000   0.50000 1.0
 0.20000   0.50000   0.50000 1.0
 0.25000   0.50000   0.50000 1.0
 0.30000   0.50000   0.50000 1.0
 0.35000   0.50000   0.50000 1.0
 0.40000   0.50000   0.50000 1.0
 0.45000   0.50000   0.50000 1.0
 0.50000   0.50000   0.50000 1.0 # A
 0.45000   0.45000   0.50000 1.0
 0.40000   0.40000   0.50000 1.0
 0.35000   0.35000   0.50000 1.0
 0.30000   0.30000   0.50000 1.0
 0.25000   0.25000   0.50000 1.0
 0.20000   0.20000   0.50000 1.0
 0.15000   0.15000   0.50000 1.0
 0.10000   0.10000   0.50000 1.0
 0.05000   0.05000   0.50000 1.0
 0.00000   0.00000   0.50000 1.0 # Z
 0.00000   0.05000   0.45000 1.0
 0.00000   0.10000   0.40000 1.0
 0.00000   0.15000   0.35000 1.0
 0.00000   0.20000   0.30000 1.0
 0.00000   0.25000   0.25000 1.0
 0.00000   0.30000   0.20000 1.0
 0.00000   0.35000   0.15000 1.0
 0.00000   0.40000   0.10000 1.0
 0.00000   0.45000   0.05000 1.0
 0.00000   0.50000   0.00000 1.0 # X
 0.00000   0.50000   0.05000 1.0
 0.00000   0.50000   0.10000 1.0
 0.00000   0.50000   0.15000 1.0
 0.00000   0.50000   0.20000 1.0
 0.00000   0.50000   0.25000 1.0
 0.00000   0.50000   0.30000 1.0
 0.00000   0.50000   0.35000 1.0
 0.00000   0.50000   0.40000 1.0
 0.00000   0.50000   0.45000 1.0
 0.00000   0.50000   0.50000 1.0 # R
 0.05000   0.50000   0.45000 1.0
 0.10000   0.50000   0.40000 1.0
 0.15000   0.50000   0.35000 1.0
 0.20000   0.50000   0.30000 1.0
 0.25000   0.50000   0.25000 1.0
 0.30000   0.50000   0.20000 1.0
 0.35000   0.50000   0.15000 1.0
 0.40000   0.50000   0.10000 1.0
 0.45000   0.50000   0.05000 1.0
 0.50000   0.50000   0.00000 1.0 # M
 0.50000   0.50000   0.05000 1.0
 0.50000   0.50000   0.10000 1.0
 0.50000   0.50000   0.15000 1.0
 0.50000   0.50000   0.20000 1.0
 0.50000   0.50000   0.25000 1.0
 0.50000   0.50000   0.30000 1.0
 0.50000   0.50000   0.35000 1.0
 0.50000   0.50000   0.40000 1.0
 0.50000   0.50000   0.45000 1.0
 0.50000   0.50000   0.50000 1.0 # A
