&projwfc
 outdir='./temp/'
 prefix='ZnO'
 DeltaE=0.015,
/
