&projwfc
 outdir='./temp'
 prefix='CaCO3'
 DeltaE=0.015,
/
