&CONTROL
  calculation = 'bands',
  pseudo_dir = './', 
  outdir = './temp',
  prefix = 'CaCO3',
etot_conv_thr=1.D-7,
forc_conv_thr=2.D-6,
nstep=100,
/
&SYSTEM
  ibrav = 8,
  celldm(1) = 10.70608,
  celldm(2) = 0.87358,
  celldm(3) = 1.40031,
  nat = 20,
  ntyp = 3,
  nbnd = 128,
  ecutwfc = 40,
  ecutrho = 320,
  occupations = 'smearing',
  smearing = 'gaussian',
  degauss = 0.01,
  input_dft='wc',
/
&ELECTRONS
  electron_maxstep = 150,
  diagonalization = 'david',
  conv_thr = 1.0d-7,
  mixing_beta = 0.2,
/
&IONS
/
&CELL
  press = 0.0,
/
ATOMIC_SPECIES
Ca   40.078   ca_pbe_v1.uspp.F.UPF
C    12.011   c_pbe_v1.2.uspp.F.UPF
O    15.9999  o_pbe_v1.2.uspp.F.UPF

ATOMIC_POSITIONS {crystal}
Ca      -0.240535618   0.750000000  -0.584878976
O       -0.096974263   0.750000000  -0.075785034
O       -0.088912684  -0.024030908  -0.320372357
O       -0.088912684   0.524030908  -0.320372357
C       -0.086510051   0.750000000  -0.237844360
O        0.088912684   0.024030908   0.320372357
C        0.086510051   0.250000000   0.237844360
O        0.088912684   0.475969092   0.320372357
O        0.096974263   0.250000000   0.075785034
Ca       0.240535618   0.250000000   0.584878976
Ca       0.259464382   0.750000000   1.084878976
O        0.403025737   0.750000000   0.575785034
O        0.411087316  -0.024030908   0.820372357
O        0.411087316   0.524030908   0.820372357
C        0.413489949   0.750000000   0.737844360
O        0.588912684   0.024030908   0.179627643
C        0.586510051   0.250000000   0.262155640
O        0.588912684   0.475969092   0.179627643
O        0.596974263   0.250000000   0.424214966
Ca       0.740535618   0.250000000  -0.084878976
K_POINTS 
151

 0.00000  0.00000  0.00000 1.0  # $\Gamma$
 0.05000  0.00000  0.00000 1.0
 0.10000  0.00000  0.00000 1.0
 0.15000  0.00000  0.00000 1.0 
 0.20000  0.00000  0.00000 1.0 
 0.25000  0.00000  0.00000 1.0 
 0.30000  0.00000  0.00000 1.0 
 0.35000  0.00000  0.00000 1.0 
 0.40000  0.00000  0.00000 1.0
 0.45000  0.00000  0.00000 1.0 
 0.50000  0.00000  0.00000 1.0   # X
 0.50000  0.05000  0.00000 1.0 
 0.50000  0.10000  0.00000 1.0 
 0.50000  0.15000  0.00000 1.0 
 0.50000  0.20000  0.00000 1.0 
 0.50000  0.25000  0.00000 1.0 
 0.50000  0.30000  0.00000 1.0 
 0.50000  0.35000  0.00000 1.0 
 0.50000  0.40000  0.00000 1.0 
 0.50000  0.45000  0.00000 1.0 
 0.50000  0.50000  0.00000 1.0   # S
 0.45000  0.50000  0.00000 1.0 
 0.40000  0.50000  0.00000 1.0 
 0.35000  0.50000  0.00000 1.0 
 0.30000  0.50000  0.00000 1.0 
 0.25000  0.50000  0.00000 1.0 
 0.20000  0.50000  0.00000 1.0 
 0.15000  0.50000  0.00000 1.0 
 0.10000  0.50000  0.00000 1.0 
 0.05000  0.50000  0.00000 1.0 
 0.00000  0.50000  0.00000 1.0   # Y
 0.00000  0.45000  0.00000 1.0 
 0.00000  0.40000  0.00000 1.0 
 0.00000  0.35000  0.00000 1.0 
 0.00000  0.30000  0.00000 1.0 
 0.00000  0.25000  0.00000 1.0 
 0.00000  0.20000  0.00000 1.0 
 0.00000  0.15000  0.00000 1.0 
 0.00000  0.10000  0.00000 1.0 
 0.00000  0.05000  0.00000 1.0 
 0.00000  0.00000  0.00000 1.0   # $\Gamma$
 0.00000  0.00000  0.05000 1.0 
 0.00000  0.00000  0.10000 1.0 
 0.00000  0.00000  0.15000 1.0 
 0.00000  0.00000  0.20000 1.0 
 0.00000  0.00000  0.25000 1.0 
 0.00000  0.00000  0.30000 1.0 
 0.00000  0.00000  0.35000 1.0 
 0.00000  0.00000  0.40000 1.0
 0.00000  0.00000  0.45000 1.0 
 0.00000  0.00000  0.50000 1.0   # Z
 0.05000  0.00000  0.50000 1.0 
 0.10000  0.00000  0.50000 1.0 
 0.15000  0.00000  0.50000 1.0 
 0.20000  0.00000  0.50000 1.0 
 0.25000  0.00000  0.50000 1.0 
 0.30000  0.00000  0.50000 1.0 
 0.35000  0.00000  0.50000 1.0 
 0.40000  0.00000  0.50000 1.0 
 0.45000  0.00000  0.50000 1.0 
 0.50000  0.00000  0.50000 1.0   # U
 0.50000  0.05000  0.50000 1.0 
 0.50000  0.10000  0.50000 1.0 
 0.50000  0.15000  0.50000 1.0 
 0.50000  0.20000  0.50000 1.0 
 0.50000  0.25000  0.50000 1.0 
 0.50000  0.30000  0.50000 1.0 
 0.50000  0.35000  0.50000 1.0
 0.50000  0.40000  0.50000 1.0 
 0.50000  0.45000  0.50000 1.0 
 0.50000  0.50000  0.50000 1.0   # R
 0.45000  0.50000  0.50000 1.0 
 0.40000  0.50000  0.50000 1.0 
 0.35000  0.50000  0.50000 1.0 
 0.30000  0.50000  0.50000 1.0 
 0.25000  0.50000  0.50000 1.0 
 0.20000  0.50000  0.50000 1.0 
 0.15000  0.50000  0.50000 1.0 
 0.10000  0.50000  0.50000 1.0 
 0.05000  0.50000  0.50000 1.0 
 0.00000  0.50000  0.50000 1.0  # T
 0.00000  0.45000  0.50000 1.0 
 0.00000  0.40000  0.50000 1.0 
 0.00000  0.35000  0.50000 1.0 
 0.00000  0.30000  0.50000 1.0 
 0.00000  0.25000  0.50000 1.0 
 0.00000  0.20000  0.50000 1.0 
 0.00000  0.15000  0.50000 1.0 
 0.00000  0.10000  0.50000 1.0 
 0.00000  0.05000  0.50000 1.0 
 0.00000  0.00000  0.50000 1.0   # Z
 0.00000  0.05000  0.45000 1.0 
 0.00000  0.10000  0.40000 1.0 
 0.00000  0.15000  0.35000 1.0 
 0.00000  0.20000  0.30000 1.0 
 0.00000  0.25000  0.25000 1.0 
 0.00000  0.30000  0.20000 1.0 
 0.00000  0.35000  0.15000 1.0 
 0.00000  0.40000  0.10000 1.0 
 0.00000  0.45000  0.05000 1.0 
 0.00000  0.50000  0.00000 1.0   # Y
 0.00000  0.50000  0.05000 1.0 
 0.00000  0.50000  0.10000 1.0 
 0.00000  0.50000  0.15000 1.0 
 0.00000  0.50000  0.20000 1.0
 0.00000  0.50000  0.25000 1.0 
 0.00000  0.50000  0.30000 1.0 
 0.00000  0.50000  0.35000 1.0 
 0.00000  0.50000  0.40000 1.0
 0.00000  0.50000  0.45000 1.0 
 0.00000  0.50000  0.50000 1.0   # T
 0.05000  0.45000  0.50000 1.0 
 0.10000  0.40000  0.50000 1.0 
 0.15000  0.35000  0.50000 1.0 
 0.20000  0.30000  0.50000 1.0  
 0.25000  0.25000  0.50000 1.0  
 0.30000  0.20000  0.50000 1.0  
 0.35000  0.15000  0.50000 1.0  
 0.40000  0.10000  0.50000 1.0  
 0.45000  0.05000  0.50000 1.0 
 0.50000  0.00000  0.50000 1.0   # U
 0.50000  0.00000  0.45000 1.0 
 0.50000  0.00000  0.40000 1.0 
 0.50000  0.00000  0.35000 1.0 
 0.50000  0.00000  0.30000 1.0 
 0.50000  0.00000  0.25000 1.0 
 0.50000  0.00000  0.20000 1.0 
 0.50000  0.00000  0.15000 1.0 
 0.50000  0.00000  0.10000 1.0 
 0.50000  0.00000  0.05000 1.0 
 0.50000  0.00000  0.00000 1.0   # X
 0.50000  0.05000  0.00000 1.0 
 0.50000  0.10000  0.00000 1.0 
 0.50000  0.15000  0.00000 1.0 
 0.50000  0.20000  0.00000 1.0 
 0.50000  0.25000  0.00000 1.0 
 0.50000  0.30000  0.00000 1.0 
 0.50000  0.35000  0.00000 1.0 
 0.50000  0.40000  0.00000 1.0 
 0.50000  0.45000  0.00000 1.0 
 0.50000  0.50000  0.00000 1.0   # S
 0.50000  0.50000  0.05000 1.0 
 0.50000  0.50000  0.10000 1.0 
 0.50000  0.50000  0.15000 1.0 
 0.50000  0.50000  0.20000 1.0 
 0.50000  0.50000  0.25000 1.0 
 0.50000  0.50000  0.30000 1.0 
 0.50000  0.50000  0.35000 1.0 
 0.50000  0.50000  0.40000 1.0 
 0.50000  0.50000  0.45000 1.0 
 0.50000  0.50000  0.50000 1.0   # R 
